30
2 10 19 
2 37 40 
1 28 
2 4 25 
2 52 22 
2 33 46 
1 30 
3 31 51 54 
3 16 24 12 
3 1 15 21 
3 43 56 39 
1 13 
2 48 45 
2 3 34 
2 49 7 
1 9 
1 18 
2 60 55 
3 36 57 27 
2 59 35 
3 6 8 14 
3 2 44 47 
1 42 
3 58 32 17 
1 53 
3 5 41 29 
2 26 50 
2 38 11 
1 20 
1 23 
